# 27471
param n := 30;
param s := 1;
set E :=  (0,3) (0,14) (1,10) (1,21) (2,7) (2,24) (2,27) (3,20) (4,10) (4,11) (4,13) (5,9) (5,18) (5,25) (6,12) (8,15) (10,23) (11,18) (11,28) (12,16) (12,27) (13,19) (14,19) (15,23) (17,19) (20,22) (20,26) (21,24) (23,24) (23,29);
